NAME: gr96
TYPE: TSP
COMMENT: Africa-Subproblem of 666-city TSP (Groetschel)
DIMENSION: 26
EDGE_WEIGHT_TYPE: GEO
DISPLAY_DATA_TYPE: COORD_DISPLAY
NODE_COORD_SECTION
 1 14.5 -523.50675447
 2 28.5 -15.5
 3 32.5 -16.5
 4 31.5 -8.5
 5 33.5 -7.5
 6 34.5 -6.5
 7 34.5 -4.5
 8 35.5 -5.5
 9 35.5 -0.5
 10 36.5 3.75
 11 22.5 5.5
 12 36.5 6.5
 13 36.5 10.25
 14 34.5 10.5
 15 32.5 13.5
 16 32.5 20.125
 17 31.5 29.5
 18 31.5 32.0675
 19 29.5 32.5
 20 30.5 31.5
 21 24.5 32.5
 22 19.5 37.5
 23 15.5 32.5
 24 13.5 30.5
 25 13.5 25.5
 26 15.5 38.625
EOF
